 16
 123074 517025 655582 371336 51246 296092 431720 933989 561395 376612 722734 995095 568523 168710 520215 267362
 248913 1051063 1211866 716645 103462 544575 860033 2039565 1174920 704133 1495071 1907792 1093059 345186 1097141 487799
 3780355